(set-logic QF_NRA)
(declare-fun i () Int)
(assert (<= (/ 1 1) i))
(assert (<= i (/ 5 1)))
(declare-fun n () Int)
(assert (<= (/ 1 1) n))
(assert (<= n (/ 5 1)))
(declare-fun x () Real)
(assert (<= (/ 1 2) x))
(assert (<= x (/ 2 1)))
(declare-fun y () Real)
(assert (<= (/ 734003 1048576) y))
(assert (<= y (/ 7549747 4194304)))
(assert 
	(or 
		(not 
			(<= 
				0
				(+ (sqrt x) (* -1 y))))
		(<= 
			(+ (sqrt x) (* -1 y))
			(+ (/ 1 (^ 2 (^ 2 i))) (* (* 3 i) (/ 1 8388608))))))
(assert 
	(or 
		(not 
			(not 
				(<= 
					0
					(+ (sqrt x) (* -1 y)))))
		(<= 
			(* -1 (+ (sqrt x) (* -1 y)))
			(+ (/ 1 (^ 2 (^ 2 i))) (* (* 3 i) (/ 1 8388608))))))
(assert 
	(<= 
		i
		n))
(assert 
	(not 
		(= 
			n
			i)))
(assert 
	(<= 
		(/ 11744051 16777216)
		(+ (/ (+ y (/ x y)) 2) (/ 1192093 10000000000000))))
(assert 
	(<= 
		(- (/ (+ y (/ x y)) 2) (/ 1192093 10000000000000))
		(/ 7549747 4194304)))
(assert 
	(not 
		(and 
			(or 
				(not 
					(<= 
						0
						(+ (+ (sqrt x) (* -1 (/ (+ y (/ x y)) 2))) (/ 1192093 10000000000000))))
				(<= 
					(+ (+ (sqrt x) (* -1 (/ (+ y (/ x y)) 2))) (/ 1192093 10000000000000))
					(+ (/ 1 (^ 2 (^ 2 (+ i 1)))) (* (* 3 (+ i 1)) (/ 1 8388608))))) 
			(or 
				(not 
					(not 
						(<= 
							0
							(- (+ (sqrt x) (* -1 (/ (+ y (/ x y)) 2))) (/ 1192093 10000000000000)))))
				(<= 
					(+ (* -1 (+ (sqrt x) (* -1 (/ (+ y (/ x y)) 2)))) (/ 1192093 10000000000000))
					(+ (/ 1 (^ 2 (^ 2 (+ i 1)))) (* (* 3 (+ i 1)) (/ 1 8388608))))))))
(check-sat)
(get-model)
(exit)
